results/filo2/x-long/X-n157-k13.vrp_seed-6.vrp.sol
Route #1: 49 14 120 26 128 142 62 97 87 65 16 75
Route #2: 12 60 109 114 29 58 39 10 134 52 107 18
Route #3: 131 133 50 154 98 123 53 144 85 140 31 23
Route #4: 88 57 2 119 81 89 112 136 76 153 5 47
Route #5: 71 149 8 150 156 24 43 141 64 63 13 148
Route #6: 129 91 100 51 90 83 45 77 11 82 113 151
Route #7: 70 139 125 78 146 80 40 108 9 117 1 126
Route #8: 59 96 102 111 132 86 94 66 28 7 137 92
Route #9: 143 32 42 3 106 73 135 21 121 54 110 41
Route #10: 38 122 69 99 93 103 36 68 20 118 147 15
Route #11: 72 48 33 84 79 74 30 22 155 25 138 34
Route #12: 101 27 44 124 130 104 127 145 46 19 116 37
Route #13: 17 67 4 35 6 115 55 95 105 152 56 61
Cost 16876.000000